5 8
4 2 5 18 6 18 2 1 24 2 24 2 3 18 4 18 2 7 12 8 12
3 2 5 32 6 32 2 3 22 4 22 2 7 18 8 18
3 2 1 42 2 42 2 3 36 4 36 2 7 14 8 14
3 2 3 40 4 40 2 5 44 6 44 2 7 22 8 22
4 2 5 28 6 28 2 1 32 2 32 2 3 26 4 26 2 7 18 8 18  